n = 12;
k = 3;
maxsize = 12;
nML = 3;
nCL = 3;
deg = [3, 4, 2, 2, 4, 4, 2, 4, 2, 3, 4, 2];
ML = array2d(1..3, 1..2, [5, 12, 11, 3, 2, 7]);
CL = array2d(1..3, 1..2, [1, 6, 4, 10, 9, 8]);
A = array2d(1..12, 1..12, [ 0, 0, 0, 0, 1, 1, 0, 1, 0, 0, 0, 0, 0, 0, 0, 0, 0, 1, 0, 1, 1, 1, 0, 0, 0, 0, 0, 0, 0, 1, 0, 0, 0, 0, 0, 1, 0, 0, 0, 0, 0, 0, 0, 1, 1, 0, 0, 0, 1, 0, 0, 0, 0, 0, 0, 1, 0, 1, 1, 0, 1, 1, 1, 0, 0, 0, 0, 0, 0, 0, 1, 0, 0, 0, 0, 0, 0, 0, 0, 0, 0, 0, 1, 1, 1, 1, 0, 1, 1, 0, 0, 0, 0, 0, 0, 0, 0, 1, 0, 1, 0, 0, 0, 0, 0, 0, 0, 0, 0, 1, 0, 0, 1, 0, 0, 0, 0, 0, 1, 0, 0, 0, 0, 0, 1, 1, 1, 0, 0, 1, 0, 0, 0, 0, 1, 0, 0, 0, 1, 0, 0, 0, 0, 0 ]);
W = array2d(1..12, 1..12, [ 6, -2, -2, -8, 8, -10, 8, 3, 4, -9, -2, 9, -7, -3, -2, 0, -7, 4, -1, 8, 2, 3, 8, 1, -1, -4, 4, 0, 4, -6, -6, 7, -5, -5, -1, 10, 8, 5, 7, 5, -1, -4, -10, -1, -10, -10, 10, 1, 5, 5, 7, -6, -8, 10, 9, 4, 8, 3, 3, -9, 1, -7, -9, -2, 6, -9, 6, -10, -8, 4, -3, -5, 5, -2, 9, -1, 8, 10, 1, 5, -8, -5, -5, 9, 8, 2, -10, -5, 5, 8, -7, 7, -2, -2, 4, -2, 5, -2, 7, 9, 1, 10, -4, 10, -8, 8, -8, -3, -2, 8, -4, -8, 3, 9, 2, -5, 5, 5, -3, 3, -5, 8, -5, -2, 5, -2, -5, 10, 8, -4, 5, -3, -8, 0, 5, -7, 10, 0, 0, -4, 9, -2, -2, 5 ]);